c Random 4-CNF over 30 variables and 120 clauses
c Generated with `cnfgen`
c (C) 2012-2016 Massimo Lauria <lauria.massimo@gmail.com>
c https://massimolauria.github.io/cnfgen
c
c COMMAND LINE: cnfgen --output tmp-4-30-120.dimacs --output-format dimacs randkcnf 4 30 120
c
c sdimacs generated by gen-sdimacs
c
p cnf 30 120
e 16 17 18 19 20 21 22 23 24 25 26 27 28 29 30 0
r 0.37 1 2 3 4 5 6 7 8 9 10 11 12 13 14 15 0
-4 -25 -29 -30 0
2 -11 -14 21 0
11 -24 26 30 0
-18 -23 -24 -29 0
-1 -13 -25 30 0
3 -6 -14 -16 0
-11 16 -22 -23 0
-1 9 19 30 0
1 -11 -21 -28 0
3 -6 21 24 0
15 -17 -24 29 0
-2 -15 -20 -24 0
9 21 27 -30 0
-4 9 12 13 0
2 -5 10 -28 0
-7 -20 21 -22 0
5 6 10 -11 0
7 -13 17 -21 0
12 -18 -28 -30 0
2 -8 19 -23 0
8 10 12 -27 0
-1 4 11 13 0
-8 11 -23 -28 0
4 5 8 21 0
-1 -18 24 30 0
5 21 -24 -28 0
-5 7 9 26 0
-1 15 -25 27 0
-5 -16 18 -23 0
4 9 -11 -19 0
-3 -7 -16 -23 0
-3 -24 27 -29 0
-1 -6 -12 -13 0
-13 14 17 26 0
6 9 17 19 0
-3 11 -12 28 0
-2 -4 13 14 0
22 23 24 -26 0
-7 14 -15 -25 0
2 -13 -14 -24 0
7 16 17 -19 0
-2 -9 20 24 0
-18 20 -21 24 0
12 -13 -22 -27 0
-1 -8 13 -26 0
-17 24 -29 -30 0
-5 11 -13 30 0
-3 -8 12 27 0
7 14 -18 24 0
6 -8 10 -17 0
-6 -11 18 -22 0
-8 11 -21 30 0
-7 8 -18 -27 0
7 15 -27 -29 0
-8 -12 -13 27 0
4 5 -8 -17 0
-4 6 11 -24 0
-2 -12 21 23 0
-2 -10 12 -26 0
2 -13 -14 -18 0
-12 -20 29 30 0
-11 19 25 27 0
-4 7 -13 30 0
-1 -6 -19 -28 0
6 -8 -25 -29 0
6 -22 -23 -25 0
-4 -9 -15 -30 0
4 6 8 -16 0
-10 -14 17 -27 0
-6 14 -20 28 0
3 -14 -18 21 0
-3 -4 -5 -25 0
4 6 -9 -21 0
12 13 -16 -25 0
-4 11 -12 -27 0
-12 -23 27 -28 0
-3 7 22 26 0
-6 -9 -20 30 0
2 -9 -11 18 0
4 7 -9 -22 0
-5 -6 -15 -30 0
-5 7 8 27 0
-4 -6 -12 -15 0
-1 -2 12 23 0
1 -6 11 -20 0
-11 20 -25 27 0
-10 11 19 23 0
1 4 -5 -10 0
-6 -12 17 -24 0
-8 -13 -16 -21 0
1 -14 15 18 0
10 25 -26 28 0
-11 15 -17 29 0
-1 -8 -10 19 0
-5 -7 -13 -20 0
10 -11 -18 -22 0
6 17 -19 29 0
3 4 13 -14 0
9 -17 -20 -21 0
14 17 -18 29 0
3 -17 21 -29 0
-14 16 17 -23 0
3 10 15 -30 0
10 -11 20 -25 0
-9 18 22 -23 0
-16 -17 -23 -27 0
-3 -6 23 -25 0
7 -11 13 -14 0
-21 -25 26 28 0
-10 -18 25 29 0
-6 11 -23 -30 0
13 14 -17 -25 0
-4 6 -7 12 0
-7 11 15 21 0
5 -10 -20 -25 0
7 -8 -25 26 0
8 -14 15 20 0
2 18 26 28 0
-6 13 29 30 0
8 -12 -21 -26 0
